30
30
1
3
3600
472 582 630 696 849 854 864 951 1013 1043 1047 1258 1279 1406 1451 1469 1534 1613 1991 2106 2157 2176 2302 2449 2593 2632 2710 2752 2808 2985 
17 14 17 31 29 14 33 12 40 5 31 22 32 8 22 25 17 22 28 22 26 29 9 18 28 31 31 14 38 21 
